09-routing/solutions/XSH-n20-k4-20.opt.sol
Route #1: 6 4 5 18 17
Route #2: 7 14 16 19
Route #3: 12 15 9 13 2 3
Route #4: 11 1 10 8 20
Cost 648
